NAME: ETSP
COMMENT: Generated by write_TSPLIB (R package TSP)
TYPE: TSP
DIMENSION: 400
EDGE_WEIGHT_TYPE: EUC_2D
NODE_COORD_SECTION
1 4.725000e+00 1.913700e+01
2 4.725000e+00 3.741000e+01
3 4.725000e+00 5.568300e+01
4 4.725000e+00 7.395600e+01
5 4.725000e+00 9.222900e+01
6 4.725000e+00 1.105020e+02
7 4.725000e+00 1.287750e+02
8 4.725000e+00 1.470490e+02
9 4.725000e+00 1.653220e+02
10 4.725000e+00 1.835950e+02
11 1.000000e+01 1.000000e+01
12 1.000000e+01 2.827300e+01
13 1.000000e+01 4.654600e+01
14 1.000000e+01 6.481900e+01
15 1.000000e+01 8.309300e+01
16 1.000000e+01 1.013660e+02
17 1.000000e+01 1.196390e+02
18 1.000000e+01 1.379120e+02
19 1.000000e+01 1.561850e+02
20 1.000000e+01 1.744580e+02
21 1.527500e+01 1.913700e+01
22 1.527500e+01 3.741000e+01
23 1.527500e+01 5.568300e+01
24 1.527500e+01 7.395600e+01
25 1.527500e+01 9.222900e+01
26 1.527500e+01 1.105020e+02
27 1.527500e+01 1.287750e+02
28 1.527500e+01 1.470490e+02
29 1.527500e+01 1.653220e+02
30 1.527500e+01 1.835950e+02
31 2.055000e+01 1.000000e+01
32 2.055000e+01 2.827300e+01
33 2.055000e+01 4.654600e+01
34 2.055000e+01 6.481900e+01
35 2.055000e+01 8.309300e+01
36 2.055000e+01 1.013660e+02
37 2.055000e+01 1.196390e+02
38 2.055000e+01 1.379120e+02
39 2.055000e+01 1.561850e+02
40 2.055000e+01 1.744580e+02
41 2.582500e+01 1.913700e+01
42 2.582500e+01 3.741000e+01
43 2.582500e+01 5.568300e+01
44 2.582500e+01 7.395600e+01
45 2.582500e+01 9.222900e+01
46 2.582500e+01 1.105020e+02
47 2.582500e+01 1.287750e+02
48 2.582500e+01 1.470490e+02
49 2.582500e+01 1.653220e+02
50 2.582500e+01 1.835950e+02
51 3.110000e+01 1.000000e+01
52 3.110000e+01 2.827300e+01
53 3.110000e+01 4.654600e+01
54 3.110000e+01 6.481900e+01
55 3.110000e+01 8.309300e+01
56 3.110000e+01 1.013660e+02
57 3.110000e+01 1.196390e+02
58 3.110000e+01 1.379120e+02
59 3.110000e+01 1.561850e+02
60 3.110000e+01 1.744580e+02
61 3.637500e+01 1.913700e+01
62 3.637500e+01 3.741000e+01
63 3.637500e+01 5.568300e+01
64 3.637500e+01 7.395600e+01
65 3.637500e+01 9.222900e+01
66 3.637500e+01 1.105020e+02
67 3.637500e+01 1.287750e+02
68 3.637500e+01 1.470490e+02
69 3.637500e+01 1.653220e+02
70 3.637500e+01 1.835950e+02
71 4.165000e+01 1.000000e+01
72 4.165000e+01 2.827300e+01
73 4.165000e+01 4.654600e+01
74 4.165000e+01 6.481900e+01
75 4.165000e+01 8.309300e+01
76 4.165000e+01 1.013660e+02
77 4.165000e+01 1.196390e+02
78 4.165000e+01 1.379120e+02
79 4.165000e+01 1.561850e+02
80 4.165000e+01 1.744580e+02
81 4.692500e+01 1.913700e+01
82 4.692500e+01 3.741000e+01
83 4.692500e+01 5.568300e+01
84 4.692500e+01 7.395600e+01
85 4.692500e+01 9.222900e+01
86 4.692500e+01 1.105020e+02
87 4.692500e+01 1.287750e+02
88 4.692500e+01 1.470490e+02
89 4.692500e+01 1.653220e+02
90 4.692500e+01 1.835950e+02
91 5.220000e+01 1.000000e+01
92 5.220000e+01 2.827300e+01
93 5.220000e+01 4.654600e+01
94 5.220000e+01 6.481900e+01
95 5.220000e+01 8.309300e+01
96 5.220000e+01 1.013660e+02
97 5.220000e+01 1.196390e+02
98 5.220000e+01 1.379120e+02
99 5.220000e+01 1.561850e+02
100 5.220000e+01 1.744580e+02
101 5.747500e+01 1.913700e+01
102 5.747500e+01 3.741000e+01
103 5.747500e+01 5.568300e+01
104 5.747500e+01 7.395600e+01
105 5.747500e+01 9.222900e+01
106 5.747500e+01 1.105020e+02
107 5.747500e+01 1.287750e+02
108 5.747500e+01 1.470490e+02
109 5.747500e+01 1.653220e+02
110 5.747500e+01 1.835950e+02
111 6.275000e+01 1.000000e+01
112 6.275000e+01 2.827300e+01
113 6.275000e+01 4.654600e+01
114 6.275000e+01 6.481900e+01
115 6.275000e+01 8.309300e+01
116 6.275000e+01 1.013660e+02
117 6.275000e+01 1.196390e+02
118 6.275000e+01 1.379120e+02
119 6.275000e+01 1.561850e+02
120 6.275000e+01 1.744580e+02
121 6.802500e+01 1.913700e+01
122 6.802500e+01 3.741000e+01
123 6.802500e+01 5.568300e+01
124 6.802500e+01 7.395600e+01
125 6.802500e+01 9.222900e+01
126 6.802500e+01 1.105020e+02
127 6.802500e+01 1.287750e+02
128 6.802500e+01 1.470490e+02
129 6.802500e+01 1.653220e+02
130 6.802500e+01 1.835950e+02
131 7.330000e+01 1.000000e+01
132 7.330000e+01 2.827300e+01
133 7.330000e+01 4.654600e+01
134 7.330000e+01 6.481900e+01
135 7.330000e+01 8.309300e+01
136 7.330000e+01 1.013660e+02
137 7.330000e+01 1.196390e+02
138 7.330000e+01 1.379120e+02
139 7.330000e+01 1.561850e+02
140 7.330000e+01 1.744580e+02
141 7.857500e+01 1.913700e+01
142 7.857500e+01 3.741000e+01
143 7.857500e+01 5.568300e+01
144 7.857500e+01 7.395600e+01
145 7.857500e+01 9.222900e+01
146 7.857500e+01 1.105020e+02
147 7.857500e+01 1.287750e+02
148 7.857500e+01 1.470490e+02
149 7.857500e+01 1.653220e+02
150 7.857500e+01 1.835950e+02
151 8.385000e+01 1.000000e+01
152 8.385000e+01 2.827300e+01
153 8.385000e+01 4.654600e+01
154 8.385000e+01 6.481900e+01
155 8.385000e+01 8.309300e+01
156 8.385000e+01 1.013660e+02
157 8.385000e+01 1.196390e+02
158 8.385000e+01 1.379120e+02
159 8.385000e+01 1.561850e+02
160 8.385000e+01 1.744580e+02
161 8.912500e+01 1.913700e+01
162 8.912500e+01 3.741000e+01
163 8.912500e+01 5.568300e+01
164 8.912500e+01 7.395600e+01
165 8.912500e+01 9.222900e+01
166 8.912500e+01 1.105020e+02
167 8.912500e+01 1.287750e+02
168 8.912500e+01 1.470490e+02
169 8.912500e+01 1.653220e+02
170 8.912500e+01 1.835950e+02
171 9.440000e+01 1.000000e+01
172 9.440000e+01 2.827300e+01
173 9.440000e+01 4.654600e+01
174 9.440000e+01 6.481900e+01
175 9.440000e+01 8.309300e+01
176 9.440000e+01 1.013660e+02
177 9.440000e+01 1.196390e+02
178 9.440000e+01 1.379120e+02
179 9.440000e+01 1.561850e+02
180 9.440000e+01 1.744580e+02
181 9.967500e+01 1.913700e+01
182 9.967500e+01 3.741000e+01
183 9.967500e+01 5.568300e+01
184 9.967500e+01 7.395600e+01
185 9.967500e+01 9.222900e+01
186 9.967500e+01 1.105020e+02
187 9.967500e+01 1.287750e+02
188 9.967500e+01 1.470490e+02
189 9.967500e+01 1.653220e+02
190 9.967500e+01 1.835950e+02
191 1.049500e+02 1.000000e+01
192 1.049500e+02 2.827300e+01
193 1.049500e+02 4.654600e+01
194 1.049500e+02 6.481900e+01
195 1.049500e+02 8.309300e+01
196 1.049500e+02 1.013660e+02
197 1.049500e+02 1.196390e+02
198 1.049500e+02 1.379120e+02
199 1.049500e+02 1.561850e+02
200 1.049500e+02 1.744580e+02
201 1.102250e+02 1.913700e+01
202 1.102250e+02 3.741000e+01
203 1.102250e+02 5.568300e+01
204 1.102250e+02 7.395600e+01
205 1.102250e+02 9.222900e+01
206 1.102250e+02 1.105020e+02
207 1.102250e+02 1.287750e+02
208 1.102250e+02 1.470490e+02
209 1.102250e+02 1.653220e+02
210 1.102250e+02 1.835950e+02
211 1.155000e+02 1.000000e+01
212 1.155000e+02 2.827300e+01
213 1.155000e+02 4.654600e+01
214 1.155000e+02 6.481900e+01
215 1.155000e+02 8.309300e+01
216 1.155000e+02 1.013660e+02
217 1.155000e+02 1.196390e+02
218 1.155000e+02 1.379120e+02
219 1.155000e+02 1.561850e+02
220 1.155000e+02 1.744580e+02
221 1.207750e+02 1.913700e+01
222 1.207750e+02 3.741000e+01
223 1.207750e+02 5.568300e+01
224 1.207750e+02 7.395600e+01
225 1.207750e+02 9.222900e+01
226 1.207750e+02 1.105020e+02
227 1.207750e+02 1.287750e+02
228 1.207750e+02 1.470490e+02
229 1.207750e+02 1.653220e+02
230 1.207750e+02 1.835950e+02
231 1.260500e+02 1.000000e+01
232 1.260500e+02 2.827300e+01
233 1.260500e+02 4.654600e+01
234 1.260500e+02 6.481900e+01
235 1.260500e+02 8.309300e+01
236 1.260500e+02 1.013660e+02
237 1.260500e+02 1.196390e+02
238 1.260500e+02 1.379120e+02
239 1.260500e+02 1.561850e+02
240 1.260500e+02 1.744580e+02
241 1.313250e+02 1.913700e+01
242 1.313250e+02 3.741000e+01
243 1.313250e+02 5.568300e+01
244 1.313250e+02 7.395600e+01
245 1.313250e+02 9.222900e+01
246 1.313250e+02 1.105020e+02
247 1.313250e+02 1.287750e+02
248 1.313250e+02 1.470490e+02
249 1.313250e+02 1.653220e+02
250 1.313250e+02 1.835950e+02
251 1.366000e+02 1.000000e+01
252 1.366000e+02 2.827300e+01
253 1.366000e+02 4.654600e+01
254 1.366000e+02 6.481900e+01
255 1.366000e+02 8.309300e+01
256 1.366000e+02 1.013660e+02
257 1.366000e+02 1.196390e+02
258 1.366000e+02 1.379120e+02
259 1.366000e+02 1.561850e+02
260 1.366000e+02 1.744580e+02
261 1.418750e+02 1.913700e+01
262 1.418750e+02 3.741000e+01
263 1.418750e+02 5.568300e+01
264 1.418750e+02 7.395600e+01
265 1.418750e+02 9.222900e+01
266 1.418750e+02 1.105020e+02
267 1.418750e+02 1.287750e+02
268 1.418750e+02 1.470490e+02
269 1.418750e+02 1.653220e+02
270 1.418750e+02 1.835950e+02
271 1.471500e+02 1.000000e+01
272 1.471500e+02 2.827300e+01
273 1.471500e+02 4.654600e+01
274 1.471500e+02 6.481900e+01
275 1.471500e+02 8.309300e+01
276 1.471500e+02 1.013660e+02
277 1.471500e+02 1.196390e+02
278 1.471500e+02 1.379120e+02
279 1.471500e+02 1.561850e+02
280 1.471500e+02 1.744580e+02
281 1.524250e+02 1.913700e+01
282 1.524250e+02 3.741000e+01
283 1.524250e+02 5.568300e+01
284 1.524250e+02 7.395600e+01
285 1.524250e+02 9.222900e+01
286 1.524250e+02 1.105020e+02
287 1.524250e+02 1.287750e+02
288 1.524250e+02 1.470490e+02
289 1.524250e+02 1.653220e+02
290 1.524250e+02 1.835950e+02
291 1.577000e+02 1.000000e+01
292 1.577000e+02 2.827300e+01
293 1.577000e+02 4.654600e+01
294 1.577000e+02 6.481900e+01
295 1.577000e+02 8.309300e+01
296 1.577000e+02 1.013660e+02
297 1.577000e+02 1.196390e+02
298 1.577000e+02 1.379120e+02
299 1.577000e+02 1.561850e+02
300 1.577000e+02 1.744580e+02
301 1.629750e+02 1.913700e+01
302 1.629750e+02 3.741000e+01
303 1.629750e+02 5.568300e+01
304 1.629750e+02 7.395600e+01
305 1.629750e+02 9.222900e+01
306 1.629750e+02 1.105020e+02
307 1.629750e+02 1.287750e+02
308 1.629750e+02 1.470490e+02
309 1.629750e+02 1.653220e+02
310 1.629750e+02 1.835950e+02
311 1.682500e+02 1.000000e+01
312 1.682500e+02 2.827300e+01
313 1.682500e+02 4.654600e+01
314 1.682500e+02 6.481900e+01
315 1.682500e+02 8.309300e+01
316 1.682500e+02 1.013660e+02
317 1.682500e+02 1.196390e+02
318 1.682500e+02 1.379120e+02
319 1.682500e+02 1.561850e+02
320 1.682500e+02 1.744580e+02
321 1.735250e+02 1.913700e+01
322 1.735250e+02 3.741000e+01
323 1.735250e+02 5.568300e+01
324 1.735250e+02 7.395600e+01
325 1.735250e+02 9.222900e+01
326 1.735250e+02 1.105020e+02
327 1.735250e+02 1.287750e+02
328 1.735250e+02 1.470490e+02
329 1.735250e+02 1.653220e+02
330 1.735250e+02 1.835950e+02
331 1.788000e+02 1.000000e+01
332 1.788000e+02 2.827300e+01
333 1.788000e+02 4.654600e+01
334 1.788000e+02 6.481900e+01
335 1.788000e+02 8.309300e+01
336 1.788000e+02 1.013660e+02
337 1.788000e+02 1.196390e+02
338 1.788000e+02 1.379120e+02
339 1.788000e+02 1.561850e+02
340 1.788000e+02 1.744580e+02
341 1.840750e+02 1.913700e+01
342 1.840750e+02 3.741000e+01
343 1.840750e+02 5.568300e+01
344 1.840750e+02 7.395600e+01
345 1.840750e+02 9.222900e+01
346 1.840750e+02 1.105020e+02
347 1.840750e+02 1.287750e+02
348 1.840750e+02 1.470490e+02
349 1.840750e+02 1.653220e+02
350 1.840750e+02 1.835950e+02
351 1.893500e+02 1.000000e+01
352 1.893500e+02 2.827300e+01
353 1.893500e+02 4.654600e+01
354 1.893500e+02 6.481900e+01
355 1.893500e+02 8.309300e+01
356 1.893500e+02 1.013660e+02
357 1.893500e+02 1.196390e+02
358 1.893500e+02 1.379120e+02
359 1.893500e+02 1.561850e+02
360 1.893500e+02 1.744580e+02
361 1.946250e+02 1.913700e+01
362 1.946250e+02 3.741000e+01
363 1.946250e+02 5.568300e+01
364 1.946250e+02 7.395600e+01
365 1.946250e+02 9.222900e+01
366 1.946250e+02 1.105020e+02
367 1.946250e+02 1.287750e+02
368 1.946250e+02 1.470490e+02
369 1.946250e+02 1.653220e+02
370 1.946250e+02 1.835950e+02
371 1.999000e+02 1.000000e+01
372 1.999000e+02 2.827300e+01
373 1.999000e+02 4.654600e+01
374 1.999000e+02 6.481900e+01
375 1.999000e+02 8.309300e+01
376 1.999000e+02 1.013660e+02
377 1.999000e+02 1.196390e+02
378 1.999000e+02 1.379120e+02
379 1.999000e+02 1.561850e+02
380 1.999000e+02 1.744580e+02
381 2.051750e+02 1.913700e+01
382 2.051750e+02 3.741000e+01
383 2.051750e+02 5.568300e+01
384 2.051750e+02 7.395600e+01
385 2.051750e+02 9.222900e+01
386 2.051750e+02 1.105020e+02
387 2.051750e+02 1.287750e+02
388 2.051750e+02 1.470490e+02
389 2.051750e+02 1.653220e+02
390 2.051750e+02 1.835950e+02
391 2.104500e+02 1.000000e+01
392 2.104500e+02 2.827300e+01
393 2.104500e+02 4.654600e+01
394 2.104500e+02 6.481900e+01
395 2.104500e+02 8.309300e+01
396 2.104500e+02 1.013660e+02
397 2.104500e+02 1.196390e+02
398 2.104500e+02 1.379120e+02
399 2.104500e+02 1.561850e+02
400 2.104500e+02 1.744580e+02
EOF
